# Objective value = 95600
x66 0
x67 0
x68 1
x69 0
x70 1
x71 1
x72 1
x73 0
x74 0
x75 0
x76 0
x77 1
x78 1
x79 1
x80 0
x81 0
x82 1
x83 1
x84 1
x85 0
x86 1
x87 1
x88 0
x89 0
x90 0
x91 1
x92 0
x93 0
x94 0
x95 1
x96 1
x97 1
x98 0
x99 1
x100 1
x101 0
x102 0
x103 1
x104 1
x105 1
x106 0
x107 1
x108 1
x109 0
x110 1
x111 1
x112 0
x113 0
x114 0
x115 1
x116 0
x117 0
x118 1
x119 0
x120 0
x121 0
x122 1
x123 1
x124 1
x125 0
x126 1
x127 1
x128 0
x129 1
x130 1
x131 0
x132 0
x133 1
x134 1
x135 1
x136 0
x137 1
x138 1
x139 0
x140 1
x141 1
x142 0
x143 1
x144 1
x145 0
x146 0
x147 0
x148 1
x149 0
x150 0
x151 1
x152 0
x153 0
x154 1
x155 0
x156 0
x157 0
x158 1
x159 1
x160 1
x161 0
x162 1
x163 1
x164 0
x165 1
x166 1
x167 0
x168 1
x169 1
x170 0
x171 0
x172 1
x173 1
x174 1
x175 0
x176 1
x177 1
x178 0
x179 1
x180 1
x181 0
x182 1
x183 1
x184 0
x185 1
x186 0
x187 1
x188 1
x189 1
x190 0
x191 1
x192 1
x193 0
x194 1
x195 1
x196 0
x197 1
x198 1
x199 0
x200 1
x201 1
x202 0
x203 1
x204 1
x205 1
x206 0
x207 1
x208 0
x209 1
x210 0
x211 0
x212 0
x213 1
x214 1
x215 0
x216 0
x217 0
x218 1
x219 1
x220 1
x221 0
x222 1
x223 1
x224 1
x225 0
x226 0
x227 1
x228 1
x229 1
x230 0
x231 1
x232 1
x233 1
x234 0
x235 1
x236 1
x237 0
x238 0
x239 1
x240 0
x241 0
x242 1
x243 0
x244 1
x245 0
x246 0
x247 0
x248 1
x249 1
x250 0
x251 1
x252 0
x253 1
x254 1
x255 0
x256 1
x257 1
x258 0
x259 0
x260 1
x261 1
x262 0
x263 1
x264 1
x265 1
x266 1
x267 0
x268 1
x269 1
x270 0
x271 1
x272 0
x273 1
x274 1
x275 0
x276 1
x277 1
x278 1
x279 1
x280 0
x281 1
x282 1
x283 0
x284 1
x285 1
x286 0
x287 1
x288 1
x289 1
x290 0
x291 1
x292 1
x293 1
x294 0
x295 1
x296 1
x297 0
x298 1
x299 1
x300 1
x301 0
x302 1
x303 1
x304 1
x305 0
x306 1
x307 1
x308 1
x309 0
x310 1
x311 1
x312 0
x313 1
x314 1
x315 1
x316 1
x317 1
x318 0
x319 1
x320 0
x321 1
x322 0
x323 0
x324 0
x325 1
x326 0
x327 0
x328 1
x329 0
x330 0
x331 0
x332 0
x333 0
x334 0
x335 0
x336 1
x337 1
x338 0
x339 1
x340 1
x341 1
x342 0
x343 1
x344 1
x345 0
x346 1
x347 1
x348 1
x349 1
x350 1
x351 0
x352 0
x353 1
x354 1
x355 0
x356 1
x357 1
x358 1
x359 1
x360 0
x361 1
x362 1
x363 0
x364 1
x365 1
x366 1
x367 1
x368 1
x369 0
x370 1
x371 0
x372 1
x373 1
x374 0
x375 1
x376 1
x377 1
x378 1
x379 0
x380 1
x381 1
x382 0
x383 1
x384 1
x385 1
x386 1
x387 1
x388 0
x389 1
x390 1
x391 0
x392 1
x393 0
x394 0
x395 1
x396 1
x397 1
x398 1
x399 0
x400 1
x401 1
x402 0
x403 1
x404 1
x405 1
x406 1
x407 1
x408 0
x409 1
x410 1
x411 1
x412 1
x413 1
x414 0
x415 1
x416 0
x417 0
x418 0
x419 0
x420 1
x421 0
x422 0
x423 1
x424 0
x425 0
x426 0
x427 0
x428 0
x429 1
x430 0
x431 0
x432 0
x433 0
x434 1
x435 0
x436 0
x437 0
x438 1
x439 0
x440 0
x441 1
x442 0
x443 0
x444 1
x445 0
x446 1
x447 1
x448 1
x449 0
x450 1
x451 1
x452 0
x453 1
x454 1
x455 1
x456 0
x457 0
x458 1
x459 1
x460 1
x461 0
x462 0
x463 1
x464 0
x465 1
x466 1
x467 1
x468 0
x469 1
x470 0
x471 1
x472 1
x473 1
x474 0
x475 1
x476 1
x477 0
x478 1
x479 1
x480 1
x481 0
x482 1
x483 1
x484 0
x485 1
x486 1
x487 1
x488 0
x489 1
x490 1
x491 0
x492 1
x493 1
x494 1
x495 0
x496 1
x497 1
x498 1
x499 1
x500 0
x501 0
x502 0
x503 1
x504 0
x505 1
x506 1
x507 0
x508 0
x509 0
x510 1
x511 0
x512 0
x513 0
x514 0
x515 0
x516 1
x517 1
x518 1
x519 0
x520 1
x521 1
x522 0
x523 1
x524 1
x525 1
x526 0
x527 1
x528 1
x529 1
x530 1
x531 0
x532 0
x533 0
x534 1
x535 1
x536 0
x537 1
x538 1
x539 0
x540 1
x541 1
x542 1
x543 0
x544 1
x545 1
x546 1
x547 1
x548 0
x549 1
x550 0
x551 1
x552 0
x553 1
x554 1
x555 0
x556 1
x557 1
x558 0
x559 1
x560 1
x561 0
x562 1
x563 1
x564 1
x565 1
x566 0
x567 1
x568 1
x569 0
x570 1
x571 0
x572 1
x573 1
x574 1
x575 1
x576 1
x577 0
x578 1
x579 1
x580 0
x581 1
x582 1
x583 1
x584 1
x585 0
x586 1
x587 1
x588 1
x589 0
x590 1
x591 0
x592 1
x593 1
x594 1
x595 1
x596 1
x597 0
x598 1
x599 1
x600 0
x601 1
x602 1
x603 1
x604 1
x605 0
x606 1
x607 1
x608 1
x609 1
x610 1
x611 0
x612 1
x613 0
x614 0
x615 0
x616 0
x617 0
x618 1
x619 0
x620 1
x621 1
x622 0
x623 0
x624 0
x625 0
x626 1
x627 0
x628 0
x629 0
x630 0
x631 0
x632 0
x633 1
x634 0
x635 1
x636 1
x637 1
x638 1
x639 1
x640 1
x641 1
x642 0
x643 0
x644 1
x645 1
x646 1
x647 1
x648 0
x649 1
x650 1
x651 1
x652 1
x653 1
x654 0
x655 0
x656 0
x657 0
x658 1
x659 1
x660 1
x661 1
x662 1
x663 1
x664 1
x665 0
x666 0
x667 1
x668 1
x669 1
x670 1
x671 0
x672 1
x673 1
x674 1
x675 1
x676 1
x677 0
x678 1
x679 1
x680 0
x681 1
x682 0
x683 0
x684 0
x685 1
x686 0
x687 0
x688 0
x689 1
x690 1
x691 0
x692 0
x693 0
x694 0
x695 1
x696 0
x697 0
x698 0
x699 0
x700 0
x701 1
x702 0
x703 0
x704 0
x705 1
x706 0
x707 1
x708 1
x709 1
x710 1
x711 1
x712 1
x713 1
x714 0
x715 0
x716 1
x717 1
x718 1
x719 1
x720 0
x721 1
x722 1
x723 1
x724 1
x725 1
x726 0
x727 1
x728 1
x729 0
x730 0
x731 1
x732 1
x733 1
x734 0
x735 1
x736 1
x737 0
x738 1
x739 1
x740 0
x741 0
x742 1
x743 1
x744 1
x745 1
x746 1
x747 0
x748 1
x749 1
x750 1
x751 0
x752 1
x753 1
x754 0
x755 1
x756 1
x757 1
x758 0
x759 1
x760 1
x761 1
x762 1
x763 1
x764 1
x765 1
x766 0
x767 0
x768 0
x769 1
x770 1
x771 0
x772 1
x773 0
x774 0
x775 0
x776 1
x777 0
x778 0
x779 0
x780 0
x781 1
x782 0
x783 0
x784 0
x785 1
x786 1
x787 1
x788 0
x789 1
x790 1
x791 0
x792 1
x793 1
x794 1
x795 0
x796 1
x797 1
x798 1
x799 0
x800 1
x801 1
x802 1
x803 0
x804 0
x805 1
x806 1
x807 1
x808 0
x809 1
x810 1
x811 0
x812 1
x813 1
x814 1
x815 1
x816 0
x817 1
x818 1
x819 1
x820 1
x821 1
x822 1
x823 0
x824 1
x825 0
x826 1
x827 1
x828 1
x829 0
x830 1
x831 0
x832 0
x833 1
x834 1
x835 1
x836 1
x837 0
x838 1
x839 1
x840 1
x841 1
x842 1
x843 1
x844 0
x845 1
x846 1
x847 0
x848 1
x849 1
x850 1
x851 0
x852 1
x853 1
x854 0
x855 1
x856 1
x857 1
x858 1
x859 0
x860 1
x861 1
x862 1
x863 0
x864 1
x865 1
x866 0
x867 1
x868 1
x869 1
x870 1
x871 1
x872 0
x873 0
x874 1
x875 0
x876 0
x877 1
x878 0
x879 0
x880 0
x881 0
x882 1
x883 0
x884 0
x885 1
x886 0
x887 0
x888 0
x889 1
x890 0
x891 0
x892 0
x893 0
x894 1
x895 0
x896 1
x897 0
x898 0
x899 1
x900 0
x901 0
x902 1
x903 0
x904 0
x905 1
x906 0
x907 0
x908 0
x909 0
x910 1
x911 0
x912 0
x913 1
x914 0
x915 0
x916 0
x917 0
x918 1
x919 0
x920 1
x921 0
x922 1
x923 1
x924 1
x925 1
x926 1
x927 0
x928 1
x929 1
x930 1
x931 0
x932 1
x933 1
x934 1
x935 0
x936 1
x937 1
x938 0
x939 1
x940 1
x941 1
x942 1
x943 0
x944 0
x945 0
x946 1
x947 0
x948 1
x949 1
x950 1
x951 1
x952 1
x953 0
x954 1
x955 1
x956 1
x957 1
x958 1
x959 1
x960 1
x961 0
x962 1
x963 1
x964 0
x965 1
x966 1
x967 1
x968 1
x969 0
x970 0
x971 1
x972 0
x973 1
x974 0
x975 1
x976 1
x977 1
x978 1
x979 1
x980 0
x981 1
x982 0
x983 1
x984 1
x985 1
x986 1
x987 1
x988 0
x989 1
x990 1
x991 0
x992 1
x993 1
x994 1
x995 1
x996 0
x997 0
x998 1
x999 1
x1000 0
x1001 1
x1002 0
x1003 1
x1004 1
x1005 1
x1006 1
x1007 1
x1008 1
x1009 1
x1010 0
x1011 0
x1012 1
x1013 1
x1014 1
x1015 0
x1016 1
x1017 1
x1018 1
x1019 0
x1020 1
x1021 1
x1022 1
x1023 1
x1024 0
x1025 0
x1026 1
x1027 1
x1028 1
x1029 1
x1030 1
x1031 1
x1032 0
x1033 0
x1034 0
x1035 0
x1036 0
x1037 0
x1038 0
x1039 1
x1040 0
x1041 1
x1042 0
x1043 0
x1044 1
x1045 0
x1046 0
x1047 0
x1048 1
x1049 0
x1050 0
x1051 0
x1052 0
x1053 1
x1054 1
x1055 0
x1056 0
x1057 0
x1058 0
x1059 0
x1060 1
x1061 0
x1062 1
x1063 1
x1064 1
x1065 0
x1066 1
x1067 1
x1068 1
x1069 0
x1070 1
x1071 1
x1072 1
x1073 1
x1074 0
x1075 1
x1076 1
x1077 1
x1078 0
x1079 1
x1080 1
x1081 1
x1082 1
x1083 0
x1084 0
x1085 1
x1086 1
x1087 1
x1088 1
x1089 0
x1090 0
x1091 1
x1092 0
x1093 1
x1094 1
x1095 1
x1096 1
x1097 1
x1098 1
x1099 1
x1100 0
x1101 1
x1102 1
x1103 1
x1104 1
x1105 0
x1106 1
x1107 1
x1108 1
x1109 0
x1110 1
x1111 1
x1112 1
x1113 1
x1114 0
x1115 0
x1116 1
x1117 1
x1118 1
x1119 1
x1120 0
x1121 1
x1 1
x2 0
x3 0
x4 0
x5 1
x6 0
x7 0
x8 1
x9 0
x10 0
x11 1
x12 0
x13 0
x14 1
x15 0
x16 0
x17 0
x18 0
x19 1
x20 0
x21 0
x22 1
x23 0
x24 0
x25 0
x26 0
x27 0
x28 1
x29 0
x30 0
x31 0
x32 0
x33 1
x34 1
x35 0
x36 0
x37 0
x38 0
x39 1
x40 0
x41 0
x42 0
x43 0
x44 0
x45 1
x46 0
x47 0
x48 1
x49 0
x50 0
x51 0
x52 1
x53 0
x54 0
x55 0
x56 0
x57 1
x58 1
x59 0
x60 0
x61 0
x62 0
x63 1
x64 0
x65 0
